p cnf 7 21 
c Factors encoded in variables 1-3 and 4-6
c Target number: 25
c Factors: 5 x 5
3 -8 0
2 5 -8 0
3 2 0
2 6 0
3 6 -8 0
2 -5 8 0
1 0
5 6 0
-2 -6 -5 -8 -8 0
6 -8 0
-2 -5 8 8 -8 0
4 0
-3 -2 0
2 3 0
-6 8 -8 0
3 6 0
-6 -5 0
-2 5 8 0
-3 -6 -8 0
6 5 0
3 5 0
